&CONTROL
 calculation = 'scf'
 restart_mode = 'from_scratch'
 prefix = 'FeCOH'
 tprnfor = .true.
 tstress = .true.
 outdir = './OUT/'
 disk_io = 'none'
 pseudo_dir = '/leonardo/home/userexternal/apacini0/PSEUDO'
 max_seconds = 86000
/

&SYSTEM    
 ibrav = 0
 nat = 120
 ntyp = 1
 ecutwfc = 60
 ecutrho = 480
 occupations = 'smearing'
 smearing = 'gaussian'
 degauss = 0.00735
 nosym=.true.
 vdw_corr = 'dft-d3'
 nspin = 2
 starting_magnetization(1) = 0.4
/

&ELECTRONS
 diagonalization = 'david'
 mixing_beta = 0.15
 electron_maxstep = 150
 mixing_mode = 'local-TF'
 mixing_ndim = 16
 conv_thr = 1.0d-6
/

&IONS
/

ATOMIC_SPECIES
Fe 55.845 Fe.pbe-sp-van.UPF

K_POINTS automatic
2 2 1 0 0 0

CELL_PARAMETERS angstrom
14.200249719271397 0.0 0.0
 0.0 12.04932369404364 0.0
 0.0 0.0 23.9999982532875


ATOMIC_POSITIONS angstrom
Fe       1.41579052       0.02191496       0.13456010  
Fe       1.42481426       4.02902229       0.13839496  
Fe       1.42281709       8.04834541       0.12815085  
Fe       4.25652287       0.02120657       0.12915700  
Fe       4.26618818       4.02910426       0.13815409  
Fe       4.25100580       8.05035957       0.11815145  
Fe       7.10075373       0.01890561       0.12445312  
Fe       7.09610893       4.03187504       0.13693352  
Fe       7.08834039       8.05139284       0.10931247  
Fe       9.94208356       0.01879263       0.12494018  
Fe       9.92883653       4.03460335       0.13677542  
Fe       9.94085689       8.04767285       0.11168655  
Fe      12.77619386       0.02023778       0.13294989  
Fe      12.77647966       4.03178723       0.13610918  
Fe      12.79076059       8.04582202       0.12101700  
Fe      -0.00638782       2.02682422       0.13705502  
Fe       0.00911695       6.03669302       0.12691678  
Fe       0.00165013      10.05988647       0.13064588  
Fe       2.84048573       2.02626060       0.13844297  
Fe       2.84293844       6.03563896       0.12964263  
Fe       2.83363310      10.06174575       0.12785959  
Fe       5.68352516       2.02410481       0.13555984  
Fe       5.67307224       6.04008456       0.12387965  
Fe       5.66979645      10.06143709       0.12139152  
Fe       8.51949025       2.02616638       0.13685669  
Fe       8.51006926       6.04177983       0.11956168  
Fe       8.52125551      10.05875860       0.11917947  
Fe      11.35418799       2.02989819       0.14057657  
Fe      11.36087346       6.03814470       0.11851593  
Fe      11.36665344      10.05643306       0.12361115  
Fe       1.41745055       2.02631809       2.13428091  
Fe       1.43093984       6.03497704       2.13068354  
Fe       1.41896236      10.06068175       2.13073837  
Fe       4.26659265       2.02587033       2.13821939  
Fe       4.25889312       6.04088121       2.13590735  
Fe       4.25520339      10.06219774       2.12369070  
Fe       7.10020262       2.02843850       2.13807005  
Fe       7.09265367       6.04158630       2.12189462  
Fe       7.09826598      10.05974079       2.11303908  
Fe       9.93866084       2.02704819       2.14552416  
Fe       9.93321804       6.04077100       2.11498249  
Fe       9.94107045      10.05699499       2.11609563  
Fe      12.77023719       2.02841425       2.14168703  
Fe      12.78106702       6.03717586       2.11676295  
Fe      12.78123736      10.05587665       2.12612706  
Fe      -0.00570594      12.06952545       2.13181032  
Fe      -0.00156190       4.03134549       2.13365076  
Fe       0.00678812       8.04574142       2.12442777  
Fe       2.83896664       0.01919806       2.13123270  
Fe       2.84737747       4.03130909       2.14155476  
Fe       2.84060274       8.04974231       2.12840943  
Fe       5.68049292      12.06754054       2.12554403  
Fe       5.68544204       4.03528286       2.14698820  
Fe       5.67139658       8.05114077       2.11389842  
Fe       8.52201625      12.06787201       2.12337863  
Fe       8.51254598       4.03322062       2.14763418  
Fe       8.51770469       8.04979270       2.10197216  
Fe      11.35746446      12.06686529       2.12945489  
Fe      11.35281570       4.03448236       2.13610030  
Fe      11.36233212       8.04730500       2.10985267  
Fe       1.41725160       0.02096014       4.14970843  
Fe       1.43338496       4.02902310       4.15126825  
Fe       1.42778169       8.04258259       4.15543902  
Fe       4.26025033       0.02694884       4.15384529  
Fe       4.27006194       4.03072511       4.17051343  
Fe       4.25380436       8.05381695       4.14998608  
Fe       7.10178520       0.02419886       4.14147488  
Fe       7.09675932       4.03554620       4.19908728  
Fe       7.09773964       8.05180753       4.11385305  
Fe       9.93755424       0.02232913       4.14949427  
Fe       9.93524715       4.03431687       4.16727255  
Fe       9.94207971       8.04300686       4.12213721  
Fe      12.77224322       0.02032996       4.15581415  
Fe      12.75855429       4.02846123       4.15461148  
Fe      12.78296466       8.04123521       4.13252284  
Fe      -0.01484276       2.02442258       4.15351492  
Fe       0.01495115       6.03596328       4.12987040  
Fe      -0.00228098      10.05519490       4.14611497  
Fe       2.84972433       2.02786762       4.15266611  
Fe       2.85571439       6.04217942       4.17457269  
Fe       2.83493328      10.05881836       4.15370328  
Fe       5.68455889       2.02835097       4.16198842  
Fe       5.67047884       6.04093248       4.14858422  
Fe       5.67740827      10.06586595       4.13553286  
Fe       8.51889604       2.03813881       4.15887780  
Fe       8.51878167       6.03521814       4.13293862  
Fe       8.52236898      10.05718700       4.13149753  
Fe      11.35317041       2.02999617       4.18147663  
Fe      11.35006282       6.03687625       4.12773421  
Fe      11.36045328      10.05280011       4.14264261  
Fe       1.40657943       2.01059986       6.12138358  
Fe       1.40495107       6.00240606       6.14538585  
Fe       1.39906178      10.06354860       6.15304111  
Fe       4.26861156       2.01026349       6.15662515  
Fe       4.31063542       6.12349071       6.19817267  
Fe       4.26560338      10.07741058       6.13749792  
Fe       7.11297344       2.03309362       6.14053716  
Fe       7.09779244       6.06855639       6.08919607  
Fe       7.10097553      10.06531134       6.13964839  
Fe       9.90448350       1.99488996       6.18658304  
Fe       9.92962355       6.06941972       6.13161868  
Fe       9.93850304      10.03320216       6.14057657  
Fe      12.78250950       2.02007062       6.21059478  
Fe      12.79189328       6.04676264       6.08180208  
Fe      12.78452490      10.04326849       6.14850723  
Fe      -0.00617240       0.00878532       6.14706006  
Fe      -0.01782043       4.02764823       6.08550251  
Fe      -0.00083987       8.03890208       6.14040646  
Fe       2.83322464       0.01829054       6.15340609  
Fe       2.83938491       4.00635912       6.19328546  
Fe       2.82888461       8.08298157       6.18977485  
Fe       5.69453140       0.02494360       6.15353846  
Fe       5.63171023       4.05275685       6.24131800  
Fe       5.70017280       8.10697069       6.10514548  
Fe       8.51073883      -0.02593671       6.12922946  
Fe       8.53577907       4.05416949       6.23762613  
Fe       8.51619348       8.06689589       6.09568488  
Fe      11.34553907      -0.02243906       6.14611080  
Fe      11.34442818       4.07243903       6.21372452  
Fe      11.36567387       8.03711737       6.12999419  
