&control
    calculation = 'relax'
    restart_mode = 'from_scratch'
    pseudo_dir = '/leonardo/home/userexternal/apacini0/PSEUDO'
    tprnfor = .true.
    outdir = './OUT/'
    disk_io = 'none'
    nstep = 10000
    max_seconds = 86000
 /
 &system
     ibrav = 0
nat = 108
     ntyp = 4
     ecutwfc = 50.0
     ecutrho = 400
     occupations = 'smearing'
     smearing = 'gaussian'
     degauss = 0.00735
     nspin = 2
     nosym = .true.
     vdw_corr = 'DFT-D3'
     starting_magnetization(1) = 0.2
     starting_magnetization(2) = 0.2
     starting_magnetization(3) = 0.2
     starting_magnetization(4) = 0.2
 /
 &electrons
    diagonalization = 'david'
    electron_maxstep = 200
    mixing_mode = 'local-TF'
    mixing_beta = 0.2
    conv_thr = 1.0d-6
 /

&ions
/

ATOMIC_SPECIES
 Mo  95.95   Mo.pbe-spn-rrkjus_psl.0.2.UPF
 S   32.065  S.pbe-n-rrkjus_psl.0.1.UPF
 O  15.999   O.pbe-n-kjpaw_psl.1.0.0.UPF
 H   1.008   H.pbe-kjpaw_psl.1.0.0.UPF


CELL_PARAMETERS angstrom
19.1944559334 0.0000000000 0.0000000000
0.0000000000 16.6228786997 0.0000000000
0.0000000000 0.0000000000 20.0000088600

ATOMIC_POSITIONS angstrom
S 19.0928481600 3.7396347400 19.9731750100
S 1.5882030300 0.7868057000 19.8598567000
S 0.0085127400 9.3139139600 0.1358794700
S 1.5528410800 6.4646927600 0.2615839600
S 19.1677046200 14.7199269000 19.8060584800
S 1.6898530300 12.0735316000 0.0012303600
S 3.0679669800 3.6646036100 0.0300949900
S 4.8848297200 0.8439667900 0.1123605100
S 3.0723030100 9.2744674300 19.9222118100
S 4.7004401000 6.5390405600 19.8839745300
S 3.2408994300 14.7094908800 0.1145160400
S 4.8143035300 11.8790610500 0.1269751600
S 6.4462871900 3.7980012400 0.0774649900
S 8.0514293300 0.8284077700 19.8266099800
S 6.4184763500 9.2837748200 0.1780823200
S 8.0127486600 6.5093755300 0.0498441600
S 6.4569458800 14.7363784700 19.6638083700
S 8.0064893500 11.9418230800 19.9396653300
S 9.4772434200 3.7543703200 19.8788265800
S 11.1234597700 0.9634580400 0.0716625000
S 9.6449780100 9.1534943700 19.9197626000
S 11.2279083300 6.5083716600 19.9400741700
S 9.7673637900 14.7817215300 0.0900104800
S 11.2779022100 11.8983783500 0.1146408100
S 12.6395761000 3.6567434800 0.0013359300
S 14.4296030800 0.9112414400 19.9469074000
S 12.7671539800 9.2902721500 0.0949069900
S 14.4898717500 6.4569286000 0.0354118500
S 12.8253630800 14.9088483300 19.8460597300
S 14.4270655700 12.0833073400 0.0397901100
S 15.8231685700 3.7110522700 19.8613289200
S 17.6630435400 1.0503935700 0.1452386900
S 16.0066157400 9.2126037000 19.9132403200
S 17.6734527000 6.4542720900 19.9129466500
S 16.0557439500 14.8050696700 0.0341431000
S 17.6483540200 11.9055244500 0.0546734900
Mo 0.0895958800 16.4622134300 1.4891769100
Mo 1.6577714100 2.4591207600 1.5301148500
Mo 18.9167601400 5.4689170200 1.6665202500
Mo 1.7416569500 8.4230570300 1.6620421800
Mo 0.2368192800 11.2602893700 1.6371776800
Mo 1.4781919200 13.8506195900 1.5913432400
Mo 2.9064801800 16.5875781800 1.5974950600
Mo 4.7917654000 2.9352718700 1.5137630900
Mo 3.3846179200 5.5894102100 1.6051843600
Mo 4.5939339000 8.3300349400 1.5797920200
Mo 2.9809393100 10.9424771700 1.5912280700
Mo 5.0920588300 13.8587292500 1.4406418100
Mo 6.6310703000 16.4324332300 1.4731629800
Mo 7.9975562500 2.5431963100 1.4321444200
Mo 6.1945269500 5.7062641400 1.5131546300
Mo 8.1445493100 8.5059041400 1.5755250900
Mo 6.6236228500 11.2150173300 1.6579940700
Mo 7.9225635100 13.9724602400 1.4409566000
Mo 9.4394879300 0.0264634000 1.5481326800
Mo 10.9149062500 2.8893510500 1.5741776400
Mo 9.7308252200 5.5954814200 1.5986179400
Mo 11.1027681500 8.1258596700 1.6586025300
Mo 9.5563207400 10.8664901600 1.4941214000
Mo 11.5281172900 13.8382295700 1.5628932200
Mo 12.9512998300 0.0271697500 1.5589852300
Mo 14.3418882500 2.6830260000 1.6005700200
Mo 12.5894152300 5.5231317600 1.5372859000
Mo 14.6071268400 8.2792425700 1.5406314900
Mo 12.9497527500 11.1976386700 1.7085330700
Mo 14.3004128700 14.0109048100 1.5346735300
Mo 15.8128611400 0.0240391400 1.6010978600
Mo 17.3487055300 3.0938142300 1.4528686800
Mo 16.1404510000 5.5056782400 1.5309095000
Mo 17.3994134500 8.2218895400 1.5682024100
Mo 15.9459132700 10.9060019400 1.6323272400
Mo 17.8358032400 13.8061748300 1.5140778800
S 19.0567242000 1.8585089500 2.8482634000
S 1.4897009200 4.5549998700 3.0253015400
S 19.1371336100 7.4177166900 3.0822649300
S 1.5959268800 10.1940335100 3.2773593000
S 0.0727297100 12.9877136300 3.2185839500
S 1.5076765300 15.6706417400 3.2927954800
S 3.1957559900 1.8307806400 3.1624536100
S 4.8498996500 4.5801522800 3.2292637500
S 3.1328250400 7.4069927500 3.2668119400
S 4.6970042900 10.2614079700 3.1335736300
S 3.2965556700 12.9099914400 2.8823777000
S 4.8195896800 15.6263217400 2.9716971800
S 6.3928287200 1.7346509700 3.0159001000
S 7.9339842100 4.5679139000 2.9070387400
S 6.2643602200 7.5495192600 3.1187670300
S 8.0786547500 10.2890748600 3.3092950300
S 6.5379733500 13.0261927600 3.1637453900
S 8.0586944300 15.6205691600 3.2232194200
S 9.4507877000 1.9484772100 3.1799263200
S 11.1229914300 4.5771349100 3.2347552800
S 9.5873812100 7.3383457000 3.2331544700
S 11.3340421500 10.0730278200 3.1300629600
S 9.6727466300 12.9303241300 2.9484603800
S 11.2677041900 15.7512699700 3.0537803600
S 12.6616075000 1.9564659400 3.1027857200
S 14.4482504900 4.7018835200 2.9962411400
S 12.9294123900 7.3485955300 3.1273239100
S 14.4484251600 10.0251127000 3.2213978600
S 12.9033674300 12.8508571600 3.3535574500
S 14.3022171500 15.6865693000 3.2175589700
S 16.0302997800 1.9789042600 3.1320323100
S 17.5654915600 4.5957900100 3.2948166600
S 15.9813481600 7.3061527500 3.2050576200
S 17.6361214000 10.1195033500 3.1523842000
S 15.9892409200 12.9108340800 2.9536985400
S 17.5733689600 15.7692839700 3.0413174000
