&control
    calculation = 'vc-relax'
    restart_mode = 'from_scratch'
    pseudo_dir = '/leonardo/home/userexternal/apacini0/PSEUDO'
    tprnfor = .true.
    outdir = './OUT/'
    disk_io = 'none'
    nstep = 10000
    max_seconds = 86000
 /
 &system
     ibrav = 0
nat = 108
     ntyp = 4
     ecutwfc = 50.0
     ecutrho = 400
     occupations = 'smearing'
     smearing = 'gaussian'
     degauss = 0.00735
     nspin = 2
     nosym = .true.
     vdw_corr = 'DFT-D3'
     starting_magnetization(1) = 0.2
     starting_magnetization(2) = 0.2
     starting_magnetization(3) = 0.2
     starting_magnetization(4) = 0.2
 /
 &electrons
    diagonalization = 'david'
    electron_maxstep = 200
    mixing_mode = 'local-TF'
    mixing_beta = 0.2
    conv_thr = 1.0d-6
 /

&ions
/

&cell
    cell_dofree = 'xy'
/

ATOMIC_SPECIES
 Mo  95.95   Mo.pbe-spn-rrkjus_psl.0.2.UPF
 S   32.065  S.pbe-n-rrkjus_psl.0.1.UPF
 O  15.999   O.pbe-n-kjpaw_psl.1.0.0.UPF
 H   1.008   H.pbe-kjpaw_psl.1.0.0.UPF

K_POINTS gamma


CELL_PARAMETERS angstrom
19.1944559334 0.0000000000 0.0000000000
0.0000000000 16.6228786997 0.0000000000
0.0000000000 0.0000000000 20.0000088600

ATOMIC_POSITIONS angstrom
S 19.1642846300 3.6751374600 19.9238950300
S 1.6080388500 0.8821656000 19.8206311200
S -0.0095250200 9.2639635300 0.2293215000
S 1.5316241900 6.5007413100 0.1727466900
S 19.2609369500 14.8103655700 19.8394409300
S 1.6427639300 12.0346764100 -0.1102936800
S 3.0791073900 3.7706841000 0.0528247900
S 4.7655847700 0.9403198400 0.2231900700
S 3.2084154200 9.2574088700 19.8259122300
S 4.7706967300 6.5245119700 19.7932453700
S 3.2846960800 14.6845153400 0.0366723600
S 4.8540860400 11.9810937900 0.2058762000
S 6.3673383100 3.6772220700 -0.0833952600
S 8.0073201200 0.8783926500 19.8149571600
S 6.3856860900 9.2637306700 0.2245999300
S 7.9280322700 6.5011668000 0.1696714600
S 6.4637527300 14.8067965200 19.8335283200
S 8.0413821300 12.0350519400 19.8865063100
S 9.4786939600 3.7715996900 20.0475070000
S 11.1652436000 0.9365670800 0.2249843600
S 9.6061128700 9.2589525500 19.8252603100
S 11.1699245300 6.5262715000 19.7942009000
S 9.6849702400 14.6804539700 0.0392245800
S 11.2539504700 11.9833375000 0.2161195100
S 12.7689262600 3.6759632800 -0.0770651300
S 14.4046678100 0.8779427000 19.8263368000
S 12.7865336300 9.2647763700 0.2306312000
S 14.3283400400 6.5021952200 0.1755272400
S 12.8657559000 14.8056818700 19.8450544800
S 14.4413326500 12.0366641100 -0.1034945700
S 15.8771509800 3.7714354000 20.0599575400
S 17.5603121000 0.9384487000 0.2297353500
S 16.0045160800 9.2598916300 19.8308448700
S 17.5674038400 6.5248717900 19.7977046200
S 16.0820737100 14.6810789600 0.0472094400
S 17.6520007400 11.9822250200 0.2160252300
Mo 0.2221623400 16.5231789900 1.5406813700
Mo 1.5219467300 2.4809013500 1.5669176400
Mo 18.8614922200 5.4832872000 1.4892163700
Mo 1.8432635600 8.4582845600 1.6662180300
Mo 0.3184510000 11.2323103700 1.6871784500
Mo 1.4835153800 13.8141970500 1.5450672600
Mo 2.9487538600 16.4629994900 1.5120876300
Mo 4.7481584700 3.0652880800 1.4990392400
Mo 3.3559988300 5.7408896300 1.6158920300
Mo 4.5478920700 8.1934564100 1.4950235000
Mo 3.0299317200 10.9229417900 1.5132116700
Mo 5.1354564300 13.9766501000 1.6111663100
Mo 6.6177083500 16.5200569600 1.5347798700
Mo 7.9188436700 2.4800469800 1.5583484400
Mo 6.0651809100 5.4831618400 1.4843461500
Mo 8.2387798800 8.4588251100 1.6625521200
Mo 6.7122276600 11.2314540500 1.6814579600
Mo 7.8790179100 13.8126933800 1.5423582600
Mo 9.3440889400 -0.1612095300 1.5110058300
Mo 11.1420011300 3.0649440200 1.4969208800
Mo 9.7539682300 5.7417189000 1.6142708200
Mo 10.9446881600 8.1960327200 1.4947704500
Mo 9.4242966400 10.9251488500 1.5123977000
Mo 11.5334869200 13.9788916100 1.6209781200
Mo 13.0165492300 -0.1014646700 1.5446428400
Mo 14.3164867500 2.4793537000 1.5702738000
Mo 12.4619232500 5.4843764800 1.4863058800
Mo 14.6393419600 8.4585130400 1.6702963000
Mo 13.1119093500 11.2316425000 1.6910548000
Mo 14.2795010700 13.8123117800 1.5531859800
Mo 15.7431822900 -0.1607346400 1.5207993700
Mo 17.5441595500 3.0650363100 1.5052168600
Mo 16.1521138700 5.7417691800 1.6210567500
Mo 17.3445522800 8.1949693400 1.4976953100
Mo 15.8253239400 10.9249905900 1.5200145300
Mo 17.9348067600 13.9794197700 1.6191294400
S 19.1031451300 1.8069731100 3.0829029000
S 1.5375863100 4.6022588000 2.8740225100
S 19.1869305100 7.4005258600 2.9654137300
S 1.6509476600 10.1608428300 3.3466044200
S 0.0627648100 12.9425107900 3.3168594400
S 1.6096266800 15.6168809800 3.2613065800
S 3.1897386500 1.8051529600 3.0448814900
S 4.7060608800 4.6224081700 3.2786260600
S 3.1806119100 7.3799817100 3.3281212900
S 4.8572624400 10.1538596800 2.9635953000
S 3.3191912300 12.9303555700 2.9375587200
S 4.8098539000 15.7671285000 3.0746673200
S 6.3064130300 1.8056593100 3.0752430800
S 7.9352499200 4.6012616900 2.8689921100
S 6.3877404100 7.4010939300 2.9638277200
S 8.0421664300 10.1613939700 3.3426544700
S 6.4536974800 12.9396207300 3.3117870200
S 8.0020525300 15.6153279900 3.2584246300
S 9.5849672000 1.8045986700 3.0401322500
S 11.0988316000 4.6215183900 3.2768541400
S 9.5771648800 7.3818272800 3.3246962300
S 11.2526671500 10.1532702300 2.9641405200
S 9.7126310300 12.9301745600 2.9397105600
S 11.2032120700 15.7714646400 3.0795868000
S 12.6988595900 1.8071817800 3.0809906800
S 14.3298245200 4.6027833000 2.8759428300
S 12.7841449900 7.3999111900 2.9661914600
S 14.4440655900 10.1598344000 3.3510964300
S 12.8533803200 12.9401155900 3.3221244200
S 14.4016973100 15.6163976800 3.2687894300
S 15.9840070800 1.8066184300 3.0496451100
S 17.5008640700 4.6236515500 3.2839821500
S 15.9796239300 7.3826327700 3.3320602400
S 17.6574682100 10.1531642900 2.9667328600
S 16.1178504400 12.9303380200 2.9458147200
S 17.6081289000 15.7708892200 3.0808699100
